============================[ Problem Statistics ]=============================|                                                                             ||  Number of variables:          4242                                         ||  Number of clauses:           10236                                         ||  Parse time:                   0.63 s                                       ||                                                                             |============================[ Search Statistics ]==============================| Conflicts |          ORIGINAL         |          LEARNT          | Progress ||           |    Vars  Clauses Literals |    Limit  Clauses Lit/Cl |          |===============================================================================|       100 |    1591     6441   995032 |     2361      100     53 | 62.501 % ||       250 |    1591     6441   995032 |     2597      250     75 | 62.495 % |===============================================================================restarts              : 3conflicts             : 342            (356 /sec)decisions             : 605            (0.00 % random) (630 /sec)propagations          : 11936          (12433 /sec)conflict literals     : 27650          (94.65 % deleted)CPU time              : 0.96 sSATISFIABLE